c description: Random 3-CNF over 24 variables and 102 clauses
c generator: CNFgen (0.9.2)
c copyright: (C) 2012-2022 Massimo Lauria <massimo.lauria@uniroma1.it>
c url: https://massimolauria.net/cnfgen
c command line: cnfgen --output CNF_4.28/24_bit_102_99.cnf randkcnf 3 24 102
c
p cnf 24 102
7 8 18 0
-2 5 12 0
-2 -11 -16 0
4 6 -15 0
-3 -7 -17 0
4 -12 -20 0
6 -17 -20 0
11 -12 17 0
2 -7 20 0
1 8 21 0
11 14 20 0
5 -14 -21 0
-14 15 -22 0
3 -6 -16 0
8 -13 -19 0
1 13 24 0
7 -12 -17 0
3 -9 19 0
-9 14 22 0
3 -21 -23 0
-2 4 -13 0
-3 9 14 0
-1 -17 -20 0
4 12 -18 0
10 -11 19 0
2 11 -19 0
2 -16 21 0
-16 20 -22 0
-1 -3 -8 0
-9 -18 20 0
-3 13 16 0
3 -10 16 0
10 12 22 0
-14 -16 24 0
-1 2 6 0
4 12 -15 0
7 -15 -24 0
4 5 8 0
-19 21 22 0
12 -19 -22 0
-1 -13 15 0
2 -6 22 0
-9 -11 -21 0
7 10 -20 0
3 20 21 0
-8 15 20 0
16 -20 -21 0
-2 -17 -21 0
3 -8 -18 0
-2 -11 -12 0
3 6 -11 0
-15 18 19 0
-2 -13 14 0
-2 -15 -21 0
4 -13 19 0
-10 11 19 0
3 -7 -13 0
-12 20 22 0
-14 20 -23 0
-4 17 21 0
-1 8 -15 0
-9 -13 -15 0
2 -12 -19 0
5 -19 20 0
3 6 18 0
-2 8 -12 0
9 -20 -22 0
-7 -8 9 0
9 -19 24 0
-6 17 -23 0
-14 15 19 0
-14 -15 23 0
-11 16 -20 0
-6 -11 14 0
-4 -5 -22 0
-3 10 13 0
8 -11 19 0
-9 11 -21 0
7 -14 20 0
-13 14 18 0
14 -20 -21 0
-2 -20 -23 0
7 18 19 0
-13 -14 -23 0
-16 -17 18 0
3 -9 -13 0
7 -12 15 0
-9 18 21 0
8 -10 -18 0
5 8 15 0
5 -9 -14 0
-4 8 -15 0
-12 14 -18 0
3 14 24 0
-13 15 -19 0
-7 -17 -18 0
-7 -10 20 0
4 12 16 0
-5 -8 18 0
11 -12 -18 0
-13 14 -22 0
12 14 23 0
